20_2_nonvalidly_0.lp
MINIMIZE
	obj:  + 148.5 x_0_0_4 + 159.0 x_4_1_0 + 141.5 x_0_2_12 + 217.5 x_12_3_0 + 312.5 x_1_4_7 + 284.5 x_7_5_1 + 274.5 x_1_6_19 + 187.0 x_19_7_1 + 263.0 x_2_8_13 + 130.0 x_13_9_2 + 154.5 x_3_10_19 + 59.5 x_19_11_3 + 82.5 x_3_12_5 + 93.5 x_5_13_3 + 87.0 x_4_14_6 + 88.0 x_6_15_4 + 159.0 x_4_16_11 + 157.5 x_11_17_4 + 308.5 x_4_18_15 + 298.0 x_15_19_4 + 107.5 x_4_20_18 + 5.5 x_18_21_4 + 163.0 x_5_22_15 + 144.0 x_15_23_5 + 175.0 x_6_24_7 + 82.0 x_7_25_6 + 145.5 x_6_26_17 + 26.0 x_17_27_6 + 172.5 x_7_28_13 + 48.5 x_13_29_7 + 136.0 x_7_30_18 + 119.0 x_18_31_7 + 198.0 x_8_32_15 + 272.0 x_15_33_8 + 6.5 x_9_34_10 + 55.5 x_10_35_9 + 106.5 x_9_36_14 + 127.5 x_14_37_9 + 242.0 x_9_38_13 + 158.5 x_13_39_9 + 194.0 x_9_40_12 + 169.5 x_12_41_9 + 59.0 x_10_42_19 + 3.0 x_19_43_10 + 131.0 x_10_44_17 + 174.5 x_17_45_10 + 96.5 x_12_46_14 + 169.5 x_14_47_12 + 57.5 x_12_48_15 + 195.0 x_15_49_12 + 118.5 x_13_50_17 + 185.5 x_17_51_13 + 199.5 x_14_52_17 + 130.0 x_17_53_14 + 97.0 x_14_54_19 + 37.0 x_19_55_14 + 158.0 x_14_56_16 + 137.5 x_16_57_14 + 227.5 x_15_58_19 + 195.0 x_19_59_15 + 42.0 x_16_60_16
SUBJECT TO
	c_source_11:  - x_4_16_11 + x_11_17_4 <= 455
	c_source_18:  - x_4_20_18 + x_18_21_4 - x_7_30_18 + x_18_31_7 <= 1842
	c_source_6:  - x_4_14_6 + x_6_15_4 + x_6_24_7 - x_7_25_6 + x_6_26_17 - x_17_27_6 <= 449
	c_source_4:  - x_0_0_4 + x_4_1_0 + x_4_14_6 - x_6_15_4 + x_4_16_11 - x_11_17_4 + x_4_18_15 - x_15_19_4 + x_4_20_18 - x_18_21_4 <= 837
	c_dest_3:  - x_3_10_19 + x_19_11_3 - x_3_12_5 + x_5_13_3 = 923
	c_dest_5:  + x_3_12_5 - x_5_13_3 - x_5_22_15 + x_15_23_5 = 410
	c_dest_8:  - x_8_32_15 + x_15_33_8 = 192
	c_dest_19:  + x_1_6_19 - x_19_7_1 + x_3_10_19 - x_19_11_3 + x_10_42_19 - x_19_43_10 + x_14_54_19 - x_19_55_14 + x_15_58_19 - x_19_59_15 = 743
	c_dest_10:  + x_9_34_10 - x_10_35_9 - x_10_42_19 + x_19_43_10 - x_10_44_17 + x_17_45_10 = 1313
	c_inter_0:  - x_0_0_4 + x_4_1_0 - x_0_2_12 + x_12_3_0 = 0
	c_inter_1:  - x_1_4_7 + x_7_5_1 - x_1_6_19 + x_19_7_1 = 0
	c_inter_2:  - x_2_8_13 + x_13_9_2 = 0
	c_inter_7:  + x_1_4_7 - x_7_5_1 + x_6_24_7 - x_7_25_6 - x_7_28_13 + x_13_29_7 - x_7_30_18 + x_18_31_7 = 0
	c_inter_9:  - x_9_34_10 + x_10_35_9 - x_9_36_14 + x_14_37_9 - x_9_38_13 + x_13_39_9 - x_9_40_12 + x_12_41_9 = 0
	c_inter_12:  + x_0_2_12 - x_12_3_0 + x_9_40_12 - x_12_41_9 - x_12_46_14 + x_14_47_12 - x_12_48_15 + x_15_49_12 = 0
	c_inter_13:  + x_2_8_13 - x_13_9_2 + x_7_28_13 - x_13_29_7 + x_9_38_13 - x_13_39_9 - x_13_50_17 + x_17_51_13 = 0
	c_inter_14:  + x_9_36_14 - x_14_37_9 + x_12_46_14 - x_14_47_12 - x_14_52_17 + x_17_53_14 - x_14_54_19 + x_19_55_14 - x_14_56_16 + x_16_57_14 = 0
	c_inter_15:  + x_4_18_15 - x_15_19_4 + x_5_22_15 - x_15_23_5 + x_8_32_15 - x_15_33_8 + x_12_48_15 - x_15_49_12 - x_15_58_19 + x_19_59_15 = 0
	c_inter_16:  + x_14_56_16 - x_16_57_14 - x_16_60_16 = 0
	c_inter_17:  + x_6_26_17 - x_17_27_6 + x_10_44_17 - x_17_45_10 + x_13_50_17 - x_17_51_13 + x_14_52_17 - x_17_53_14 = 0
BINARY
END
